Ni3Al
1.0
        3.5699999332         0.0000000000         0.0000000000
        0.0000000000         3.5699999332         0.0000000000
        0.0000000000         0.0000000000         3.5699999332
   Ni   Al
    3    1
Direct
     0.500000000         0.500000000         0.000000000
    -0.000000000         0.500000000         0.500000000
     0.500000000        -0.000000000         0.500000000
     0.000000000         0.000000000         0.000000000
